(set-logic QF_LIA)
(declare-fun x0 () Int)
(declare-fun x1 () Int)
(declare-fun x2 () Int)
(declare-fun x3 () Int)
(declare-fun x4 () Int)
(declare-fun x5 () Int)
(declare-fun x6 () Int)
(declare-fun x7 () Int)
(declare-fun x8 () Int)
(declare-fun x9 () Int)
(declare-fun A0 () Bool)
(declare-fun A1 () Bool)
(declare-fun A2 () Bool)
(declare-fun A3 () Bool)
(declare-fun A4 () Bool)
(declare-fun A5 () Bool)
(declare-fun A6 () Bool)
(declare-fun A7 () Bool)
(declare-fun A8 () Bool)
(declare-fun A9 () Bool)
(assert (let ((.def_0 (not A4))) (let ((.def_1 (or .def_0 A6))) (let ((.def_2 (* (- 1) x8))) (let ((.def_3 (* (- 1) x0))) (let ((.def_4 (+ .def_3 .def_2))) (let ((.def_5 (< .def_4 1))) (let ((.def_6 (and A7 .def_5))) (let ((.def_7 (and .def_6 .def_1))) (let ((.def_8 (* 1 x6))) (let ((.def_9 (+ .def_2 .def_8))) (let ((.def_10 (< .def_9 (- 1)))) (let ((.def_11 (not .def_10))) (let ((.def_12 (< .def_8 (- 1)))) (let ((.def_13 (or .def_12 .def_11))) (let ((.def_14 (not .def_13))) (let ((.def_15 (* 1 x4))) (let ((.def_16 (< .def_15 1))) (let ((.def_17 (and A0 .def_16))) (let ((.def_18 (and .def_17 .def_14))) (let ((.def_19 (not .def_18))) (let ((.def_20 (and .def_19 .def_7))) (let ((.def_21 (not .def_20))) (let ((.def_22 (not A0))) (let ((.def_23 (not A5))) (let ((.def_24 (and .def_23 .def_22))) (let ((.def_25 (* 1 x9))) (let ((.def_26 (< .def_25 1))) (let ((.def_27 (* (- 1) x9))) (let ((.def_28 (+ .def_2 .def_27))) (let ((.def_29 (< .def_28 (- 1)))) (let ((.def_30 (not .def_29))) (let ((.def_31 (and .def_30 .def_26))) (let ((.def_32 (not .def_31))) (let ((.def_33 (or .def_32 .def_24))) (let ((.def_34 (not .def_33))) (let ((.def_35 (* (- 1) x4))) (let ((.def_36 (< .def_35 1))) (let ((.def_37 (not .def_36))) (let ((.def_38 (not A1))) (let ((.def_39 (and .def_38 .def_37))) (let ((.def_40 (* (- 1) x3))) (let ((.def_41 (< .def_40 (- 1)))) (let ((.def_42 (or A1 .def_41))) (let ((.def_43 (and .def_42 .def_39))) (let ((.def_44 (and .def_43 .def_34))) (let ((.def_45 (or .def_44 .def_21))) (let ((.def_46 (not A8))) (let ((.def_47 (* 1 x8))) (let ((.def_48 (* (- 1) x5))) (let ((.def_49 (+ .def_48 .def_47))) (let ((.def_50 (< .def_49 (- 1)))) (let ((.def_51 (not .def_50))) (let ((.def_52 (= .def_51 .def_46))) (let ((.def_53 (not .def_52))) (let ((.def_54 (and A4 A4))) (let ((.def_55 (not .def_54))) (let ((.def_56 (and .def_55 .def_53))) (let ((.def_57 (* (- 1) x7))) (let ((.def_58 (< .def_57 (- 1)))) (let ((.def_59 (= .def_58 .def_58))) (let ((.def_60 (not .def_59))) (let ((.def_61 (* 1 x7))) (let ((.def_62 (* 1 x0))) (let ((.def_63 (+ .def_62 .def_61))) (let ((.def_64 (< .def_63 1))) (let ((.def_65 (not .def_64))) (let ((.def_66 (or .def_65 A5))) (let ((.def_67 (not .def_66))) (let ((.def_68 (or .def_67 .def_60))) (let ((.def_69 (and .def_68 .def_56))) (let ((.def_70 (not .def_69))) (let ((.def_71 (and .def_38 .def_23))) (let ((.def_72 (* 1 x1))) (let ((.def_73 (+ .def_72 .def_47))) (let ((.def_74 (< .def_73 1))) (let ((.def_75 (< .def_27 1))) (let ((.def_76 (or .def_75 .def_74))) (let ((.def_77 (and .def_76 .def_71))) (let ((.def_78 (* (- 1) x2))) (let ((.def_79 (< .def_78 1))) (let ((.def_80 (not .def_79))) (let ((.def_81 (or A5 .def_80))) (let ((.def_82 (not .def_81))) (let ((.def_83 (or A1 A1))) (let ((.def_84 (not .def_83))) (let ((.def_85 (or .def_84 .def_82))) (let ((.def_86 (not .def_85))) (let ((.def_87 (or .def_86 .def_77))) (let ((.def_88 (not .def_87))) (let ((.def_89 (or .def_88 .def_70))) (let ((.def_90 (= .def_89 .def_45))) (let ((.def_91 (+ .def_72 .def_78))) (let ((.def_92 (< .def_91 (- 1)))) (let ((.def_93 (< .def_35 (- 1)))) (let ((.def_94 (or .def_93 .def_92))) (let ((.def_95 (* (- 1) x6))) (let ((.def_96 (+ .def_95 .def_40))) (let ((.def_97 (< .def_96 (- 1)))) (let ((.def_98 (not .def_97))) (let ((.def_99 (and A6 .def_98))) (let ((.def_100 (or .def_99 .def_94))) (let ((.def_101 (not .def_100))) (let ((.def_102 (< .def_47 (- 1)))) (let ((.def_103 (not .def_102))) (let ((.def_104 (and .def_103 A5))) (let ((.def_105 (not .def_104))) (let ((.def_106 (not .def_75))) (let ((.def_107 (and .def_106 A3))) (let ((.def_108 (not .def_107))) (let ((.def_109 (or .def_108 .def_105))) (let ((.def_110 (or .def_109 .def_101))) (let ((.def_111 (not .def_110))) (let ((.def_112 (and .def_103 A0))) (let ((.def_113 (< .def_78 (- 1)))) (let ((.def_114 (not .def_113))) (let ((.def_115 (or .def_114 .def_16))) (let ((.def_116 (or .def_115 .def_112))) (let ((.def_117 (not .def_116))) (let ((.def_118 (+ .def_48 .def_35))) (let ((.def_119 (< .def_118 1))) (let ((.def_120 (and .def_119 A5))) (let ((.def_121 (not A6))) (let ((.def_122 (and .def_121 A7))) (let ((.def_123 (not .def_122))) (let ((.def_124 (and .def_123 .def_120))) (let ((.def_125 (not .def_124))) (let ((.def_126 (or .def_125 .def_117))) (let ((.def_127 (not .def_126))) (let ((.def_128 (and .def_127 .def_111))) (let ((.def_129 (+ .def_78 .def_47))) (let ((.def_130 (< .def_129 (- 1)))) (let ((.def_131 (not .def_130))) (let ((.def_132 (or A8 .def_131))) (let ((.def_133 (* 1 x5))) (let ((.def_134 (* (- 1) x1))) (let ((.def_135 (+ .def_134 .def_133))) (let ((.def_136 (< .def_135 1))) (let ((.def_137 (not .def_136))) (let ((.def_138 (< .def_95 1))) (let ((.def_139 (not .def_138))) (let ((.def_140 (or .def_139 .def_137))) (let ((.def_141 (and .def_140 .def_132))) (let ((.def_142 (not .def_141))) (let ((.def_143 (+ .def_47 .def_48))) (let ((.def_144 (< .def_143 (- 1)))) (let ((.def_145 (not .def_144))) (let ((.def_146 (+ .def_47 .def_62))) (let ((.def_147 (< .def_146 1))) (let ((.def_148 (or .def_147 .def_145))) (let ((.def_149 (< .def_47 1))) (let ((.def_150 (or .def_149 .def_38))) (let ((.def_151 (and .def_150 .def_148))) (let ((.def_152 (not .def_151))) (let ((.def_153 (and .def_152 .def_142))) (let ((.def_154 (not .def_153))) (let ((.def_155 (not A3))) (let ((.def_156 (or .def_155 .def_80))) (let ((.def_157 (not .def_156))) (let ((.def_158 (not A9))) (let ((.def_159 (not .def_41))) (let ((.def_160 (and .def_159 .def_158))) (let ((.def_161 (or .def_160 .def_157))) (let ((.def_162 (not .def_161))) (let ((.def_163 (* 1 x3))) (let ((.def_164 (+ .def_163 .def_61))) (let ((.def_165 (< .def_164 1))) (let ((.def_166 (not .def_165))) (let ((.def_167 (= .def_166 .def_79))) (let ((.def_168 (and A5 A7))) (let ((.def_169 (or .def_168 .def_167))) (let ((.def_170 (not .def_169))) (let ((.def_171 (and .def_170 .def_162))) (let ((.def_172 (or .def_171 .def_154))) (let ((.def_173 (not .def_172))) (let ((.def_174 (or .def_173 .def_128))) (let ((.def_175 (not .def_174))) (let ((.def_176 (= .def_175 .def_90))) (let ((.def_177 (< .def_8 1))) (let ((.def_178 (not .def_177))) (let ((.def_179 (and A4 .def_178))) (let ((.def_180 (not .def_179))) (let ((.def_181 (+ .def_48 .def_3))) (let ((.def_182 (< .def_181 (- 1)))) (let ((.def_183 (or .def_182 .def_0))) (let ((.def_184 (not .def_183))) (let ((.def_185 (and .def_184 .def_180))) (let ((.def_186 (not .def_185))) (let ((.def_187 (or A6 .def_158))) (let ((.def_188 (not .def_187))) (let ((.def_189 (+ .def_78 .def_8))) (let ((.def_190 (< .def_189 1))) (let ((.def_191 (not .def_190))) (let ((.def_192 (+ .def_25 .def_78))) (let ((.def_193 (< .def_192 1))) (let ((.def_194 (not .def_193))) (let ((.def_195 (= .def_194 .def_191))) (let ((.def_196 (or .def_195 .def_188))) (let ((.def_197 (not .def_196))) (let ((.def_198 (or .def_197 .def_186))) (let ((.def_199 (not .def_198))) (let ((.def_200 (< .def_61 (- 1)))) (let ((.def_201 (not .def_200))) (let ((.def_202 (or A1 .def_201))) (let ((.def_203 (not .def_202))) (let ((.def_204 (+ .def_3 .def_78))) (let ((.def_205 (< .def_204 1))) (let ((.def_206 (and .def_205 .def_46))) (let ((.def_207 (and .def_206 .def_203))) (let ((.def_208 (+ .def_47 .def_163))) (let ((.def_209 (< .def_208 (- 1)))) (let ((.def_210 (= .def_155 .def_209))) (let ((.def_211 (+ .def_163 .def_3))) (let ((.def_212 (< .def_211 (- 1)))) (let ((.def_213 (and .def_212 .def_23))) (let ((.def_214 (= .def_213 .def_210))) (let ((.def_215 (or .def_214 .def_207))) (let ((.def_216 (not .def_215))) (let ((.def_217 (and .def_216 .def_199))) (let ((.def_218 (not .def_217))) (let ((.def_219 (not .def_26))) (let ((.def_220 (and .def_138 .def_219))) (let ((.def_221 (not A2))) (let ((.def_222 (and A2 .def_221))) (let ((.def_223 (not .def_222))) (let ((.def_224 (or .def_223 .def_220))) (let ((.def_225 (and .def_93 .def_46))) (let ((.def_226 (not .def_225))) (let ((.def_227 (< .def_61 1))) (let ((.def_228 (or .def_178 .def_227))) (let ((.def_229 (not .def_228))) (let ((.def_230 (or .def_229 .def_226))) (let ((.def_231 (and .def_230 .def_224))) (let ((.def_232 (not .def_231))) (let ((.def_233 (< .def_134 1))) (let ((.def_234 (and .def_233 .def_97))) (let ((.def_235 (not .def_234))) (let ((.def_236 (+ .def_61 .def_163))) (let ((.def_237 (< .def_236 1))) (let ((.def_238 (or A5 .def_237))) (let ((.def_239 (not .def_238))) (let ((.def_240 (or .def_239 .def_235))) (let ((.def_241 (or A5 .def_0))) (let ((.def_242 (+ .def_2 .def_57))) (let ((.def_243 (< .def_242 1))) (let ((.def_244 (not .def_243))) (let ((.def_245 (and .def_244 .def_158))) (let ((.def_246 (and .def_245 .def_241))) (let ((.def_247 (or .def_246 .def_240))) (let ((.def_248 (= .def_247 .def_232))) (let ((.def_249 (and .def_248 .def_218))) (let ((.def_250 (= .def_121 A6))) (let ((.def_251 (* 1 x2))) (let ((.def_252 (< .def_251 (- 1)))) (let ((.def_253 (or .def_252 .def_138))) (let ((.def_254 (not .def_253))) (let ((.def_255 (and .def_254 .def_250))) (let ((.def_256 (not .def_255))) (let ((.def_257 (< .def_25 (- 1)))) (let ((.def_258 (= .def_155 .def_257))) (let ((.def_259 (+ .def_134 .def_95))) (let ((.def_260 (< .def_259 (- 1)))) (let ((.def_261 (or .def_221 .def_260))) (let ((.def_262 (not .def_261))) (let ((.def_263 (and .def_262 .def_258))) (let ((.def_264 (or .def_263 .def_256))) (let ((.def_265 (and A5 .def_201))) (let ((.def_266 (not .def_265))) (let ((.def_267 (and .def_93 .def_200))) (let ((.def_268 (not .def_267))) (let ((.def_269 (= .def_268 .def_266))) (let ((.def_270 (not .def_269))) (let ((.def_271 (+ .def_25 .def_251))) (let ((.def_272 (< .def_271 1))) (let ((.def_273 (not .def_272))) (let ((.def_274 (< .def_72 1))) (let ((.def_275 (and .def_274 .def_273))) (let ((.def_276 (not .def_257))) (let ((.def_277 (+ .def_27 .def_2))) (let ((.def_278 (< .def_277 1))) (let ((.def_279 (and .def_278 .def_276))) (let ((.def_280 (or .def_279 .def_275))) (let ((.def_281 (not .def_280))) (let ((.def_282 (or .def_281 .def_270))) (let ((.def_283 (or .def_282 .def_264))) (let ((.def_284 (not .def_283))) (let ((.def_285 (and A3 .def_75))) (let ((.def_286 (not .def_285))) (let ((.def_287 (or A5 A4))) (let ((.def_288 (not .def_287))) (let ((.def_289 (or .def_288 .def_286))) (let ((.def_290 (not .def_289))) (let ((.def_291 (< .def_133 1))) (let ((.def_292 (and A7 .def_291))) (let ((.def_293 (not .def_292))) (let ((.def_294 (or A9 A6))) (let ((.def_295 (not .def_294))) (let ((.def_296 (and .def_295 .def_293))) (let ((.def_297 (and .def_296 .def_290))) (let ((.def_298 (or .def_221 A3))) (let ((.def_299 (not .def_298))) (let ((.def_300 (+ .def_25 .def_57))) (let ((.def_301 (< .def_300 1))) (let ((.def_302 (and A6 .def_301))) (let ((.def_303 (and .def_302 .def_299))) (let ((.def_304 (not A7))) (let ((.def_305 (and .def_46 .def_304))) (let ((.def_306 (not .def_305))) (let ((.def_307 (< .def_15 (- 1)))) (let ((.def_308 (not .def_307))) (let ((.def_309 (or A2 .def_308))) (let ((.def_310 (and .def_309 .def_306))) (let ((.def_311 (not .def_310))) (let ((.def_312 (and .def_311 .def_303))) (let ((.def_313 (or .def_312 .def_297))) (let ((.def_314 (and .def_313 .def_284))) (let ((.def_315 (not .def_314))) (let ((.def_316 (and .def_315 .def_249))) (let ((.def_317 (not .def_316))) (let ((.def_318 (and .def_317 .def_176))) (let ((.def_319 (<= x9 1))) (let ((.def_320 (<= 0 x9))) (let ((.def_321 (<= x8 1))) (let ((.def_322 (<= 0 x8))) (let ((.def_323 (<= x7 1))) (let ((.def_324 (<= 0 x7))) (let ((.def_325 (<= x6 1))) (let ((.def_326 (<= 0 x6))) (let ((.def_327 (<= x5 1))) (let ((.def_328 (<= 0 x5))) (let ((.def_329 (<= x4 1))) (let ((.def_330 (<= 0 x4))) (let ((.def_331 (<= x3 1))) (let ((.def_332 (<= 0 x3))) (let ((.def_333 (<= x2 1))) (let ((.def_334 (<= 0 x2))) (let ((.def_335 (<= x1 1))) (let ((.def_336 (<= 0 x1))) (let ((.def_337 (<= x0 1))) (let ((.def_338 (<= 0 x0))) (let ((.def_339 (and .def_338 .def_337 .def_336 .def_335 .def_334 .def_333 .def_332 .def_331 .def_330 .def_329 .def_328 .def_327 .def_326 .def_325 .def_324 .def_323 .def_322 .def_321 .def_320 .def_319 .def_318))) .def_339)))))))))))))))))))))))))))))))))))))))))))))))))))))))))))))))))))))))))))))))))))))))))))))))))))))))))))))))))))))))))))))))))))))))))))))))))))))))))))))))))))))))))))))))))))))))))))))))))))))))))))))))))))))))))))))))))))))))))))))))))))))))))))))))))))))))))))))))))))))))))))))))))))))))))))))))))))))))))))))))))))))))))))))))))))))
(check-sat)
